DIMENSION: 28
EDGE_WEIGHT_TYPE: EXPLICIT
EDGE_WEIGHT_FORMAT: FULL_MATRIX
EDGE_WEIGHT_SECTION:
32767 32767 32767 32767 32767 32767 32767 32767 32767 32767 32767 32767 65 86 32767 32767 42 8 92 32767 44 53 32767 64 32767 28 32767 42 
32767 32767 72 30 53 32767 32767 91 100 32767 7 32767 32767 32767 32767 32767 32767 71 32767 51 12 32767 32767 37 13 32767 65 32767 
32767 72 32767 32767 32767 32767 32767 32767 10 32767 32767 32767 32767 32767 54 32767 57 32767 99 32767 32767 32767 32767 75 79 3 32767 32767 
32767 30 32767 32767 32767 95 32767 4 81 32767 32767 32767 32767 32767 32767 32767 32767 32767 78 35 10 32767 32767 26 2 32767 32767 32767 
32767 53 32767 32767 32767 32767 32767 18 48 90 29 38 32767 32767 48 95 32767 32767 32767 32767 32767 32767 25 32767 96 48 59 32767 
32767 32767 32767 95 32767 32767 32767 32767 33 85 32767 22 16 32767 83 32767 32767 32767 71 32767 32767 60 100 32767 99 32767 32767 61 
32767 32767 32767 32767 32767 32767 32767 32767 46 32767 32767 32767 48 23 32767 5 32767 40 63 15 34 32767 32767 32767 32767 32767 32767 32767 
32767 91 32767 4 18 32767 32767 32767 32767 32767 32767 32767 32767 32767 29 32767 89 91 32767 32767 32767 32767 64 32767 32767 32767 32767 32767 
32767 100 10 81 48 33 46 32767 32767 32767 79 32767 32767 32767 32767 32767 41 32767 32767 32767 32767 32767 32767 32767 44 32767 32767 32767 
32767 32767 32767 32767 90 85 32767 32767 32767 32767 32767 32767 32767 32767 75 32767 32767 32767 32767 44 32767 32767 29 32767 32767 32767 32767 32767 
32767 7 32767 32767 29 32767 32767 32767 79 32767 32767 3 32767 32767 5 32767 32767 32767 81 32767 32767 32767 32767 85 32767 32767 1 32767 
32767 32767 32767 32767 38 22 32767 32767 32767 32767 3 32767 32767 32767 32767 32767 49 32767 38 12 32767 60 32767 32767 32767 32767 32767 44 
65 32767 32767 32767 32767 16 48 32767 32767 32767 32767 32767 32767 32767 78 32767 32767 32767 32767 32767 32767 32767 32767 32767 41 32767 6 62 
86 32767 32767 32767 32767 32767 23 32767 32767 32767 32767 32767 32767 32767 65 32767 32767 97 20 32767 47 32767 32767 21 70 32767 32767 32767 
32767 32767 54 32767 48 83 32767 29 32767 75 5 32767 78 65 32767 32767 93 32767 32767 58 32767 32767 32767 32767 32767 32767 32767 2 
32767 32767 32767 32767 95 32767 5 32767 32767 32767 32767 32767 32767 32767 32767 32767 32767 32767 32767 32767 32767 32767 32767 85 32767 6 32767 32767 
42 32767 57 32767 32767 32767 32767 89 41 32767 32767 49 32767 32767 93 32767 32767 32767 32767 32767 32767 32767 32767 21 18 67 8 32767 
8 71 32767 32767 32767 32767 40 91 32767 32767 32767 32767 32767 97 32767 32767 32767 32767 9 66 48 99 32767 83 32767 88 32767 32767 
92 32767 99 78 32767 71 63 32767 32767 32767 81 38 32767 20 32767 32767 32767 9 32767 81 32767 96 67 32767 32767 32767 32767 74 
32767 51 32767 35 32767 32767 15 32767 32767 44 32767 12 32767 32767 58 32767 32767 66 81 32767 31 65 32767 32767 32767 32767 32767 32767 
44 12 32767 10 32767 32767 34 32767 32767 32767 32767 32767 32767 47 32767 32767 32767 48 32767 31 32767 32767 32767 32767 32767 32767 48 32767 
53 32767 32767 32767 32767 60 32767 32767 32767 32767 32767 60 32767 32767 32767 32767 32767 99 96 65 32767 32767 81 32767 32767 32767 32767 32767 
32767 32767 32767 32767 25 100 32767 64 32767 29 32767 32767 32767 32767 32767 32767 32767 32767 67 32767 32767 81 32767 77 32767 61 49 32767 
64 37 75 26 32767 32767 32767 32767 32767 32767 85 32767 32767 21 32767 85 21 83 32767 32767 32767 32767 77 32767 32767 32767 32767 9 
32767 13 79 2 96 99 32767 32767 44 32767 32767 32767 41 70 32767 32767 18 32767 32767 32767 32767 32767 32767 32767 32767 32767 32767 32767 
28 32767 3 32767 48 32767 32767 32767 32767 32767 32767 32767 32767 32767 32767 6 67 88 32767 32767 32767 32767 61 32767 32767 32767 32767 32767 
32767 65 32767 32767 59 32767 32767 32767 32767 32767 1 32767 6 32767 32767 32767 8 32767 32767 32767 48 32767 49 32767 32767 32767 32767 32767 
42 32767 32767 32767 32767 61 32767 32767 32767 32767 32767 44 62 32767 2 32767 32767 32767 74 32767 32767 32767 32767 9 32767 32767 32767 32767 
EOF